100 155062
78 55 80 75 27 44 86 93 8 3 39 74 54 5 24 22 68 9 92 35 1 6 11 14 89 90 19 82 66 62 33 13 16 81 31 85 4 56 38 99 79 95 25 77 43 46 30 48 36 12 71 49 94 63 57 26 96 61 72 45 83 2 34 20 52 51 98 67 69 53 91 97 15 40 32 47 59 84 100 17 18 28 21 73 60 64 23 50 41 7 65 37 10 88 58 70 42 29 87 76 
